
Gurobi 8.1.1 (win64, Python) logging started 09/09/19 22:28:02

Academic license - for non-commercial use only
Optimize a model with 12 rows, 36 columns and 168 nonzeros
Coefficient statistics:
  Matrix range     [1e+00, 9e+01]
  Objective range  [3e-01, 1e+02]
  Bounds range     [0e+00, 0e+00]
  RHS range        [2e+04, 3e+04]
Presolve time: 0.00s
Presolved: 12 rows, 36 columns, 168 nonzeros

Iteration    Objective       Primal Inf.    Dual Inf.      Time
       0    0.0000000e+00   3.753125e+04   0.000000e+00      0s
      14    5.6002531e+04   0.000000e+00   0.000000e+00      0s

Solved in 14 iterations and 0.00 seconds
Optimal objective  5.600253089e+04
